results_rootrelaxation/bin018_070_009.srr.sol
solution status: optimal solution found
objective value:                     1.14857889233214
_var2803_                          0.0559205623381687 	(obj:0)
_var2825_                            0.15930055023884 	(obj:0)
_var2922_                           0.239688115249114 	(obj:0)
_var3058_                          0.0292289766685761 	(obj:0)
_var3142_                           0.260477308655331 	(obj:0)
_var3226_                            0.16463391105717 	(obj:0)
_var3242_                          0.0576488882145344 	(obj:0)
_var3247_                           0.125596789957567 	(obj:0)
_var3249_                           0.346116102890228 	(obj:0)
_var3256_                          0.0370301379652796 	(obj:0)
_var3262_                           0.187217070330351 	(obj:0)
_var3267_                          0.0176770270149429 	(obj:0)
_var3277_                           0.278869509920855 	(obj:0)
_var3290_                          0.0638309920247336 	(obj:0)
_var3292_                           0.403429809719715 	(obj:0)
_var3296_                           0.110047707287019 	(obj:0)
_var3304_                          0.0490315242896496 	(obj:0)
_var3306_                           0.238090527855167 	(obj:1)
_var3309_                          0.0244911626525983 	(obj:0)
_var3332_                          0.0616221202631093 	(obj:0)
_var3341_                          0.0547339778922321 	(obj:0)
_var3349_                          0.0833823594050976 	(obj:0)
_var3350_                           0.606029313544371 	(obj:0)
_var3351_                           0.296936179708842 	(obj:0)
_var3358_                           0.301740339852622 	(obj:0)
_var3367_                          0.0652632641629288 	(obj:0)
_var3370_                          0.0396316191644835 	(obj:0)
_var3373_                          0.0943060829492344 	(obj:0)
_var3385_                          0.0490315242896496 	(obj:0)
_var3388_                           0.133899829557543 	(obj:0)
_var3392_                           0.243527067502227 	(obj:0)
_var3393_                           0.413800249376641 	(obj:0)
_var3400_                            0.03218085229079 	(obj:0)
_var3404_                          0.0471385972253064 	(obj:2)
_var3407_                           0.227360332222932 	(obj:0)
_var3409_                         0.000998859326051038 	(obj:1)
_var3428_                           0.243716088951727 	(obj:0)
_var3429_                          0.0535365775875954 	(obj:0)
_var3430_                           0.124891187895009 	(obj:0)
_var3432_                          0.0555785601941864 	(obj:0)
_var3438_                            0.23657923020706 	(obj:0)
_var3441_                           0.191457992145832 	(obj:0)
_var3447_                            0.16220710460407 	(obj:0)
_var3450_                          0.0715206163150897 	(obj:0)
_var3457_                          0.0302160208851432 	(obj:0)
_var3459_                           0.036176157947672 	(obj:0)
_var3460_                          0.0314637743881773 	(obj:0)
_var3461_                           0.307176784967382 	(obj:0)
_var3462_                          0.0894880252890727 	(obj:0)
_var3467_                           0.258533399181823 	(obj:0)
_var3468_                           0.238930299795594 	(obj:0)
_var3471_                         0.00612665776366103 	(obj:0)
_var3474_                          0.0211265437999059 	(obj:0)
_var3478_                          0.0114502801694093 	(obj:0)
_var3480_                           0.384764092896638 	(obj:0)
_var3487_                          0.0696336958582079 	(obj:0)
_var3489_                           0.358255697968948 	(obj:1)
_var3490_                           0.241070465611467 	(obj:0)
_var3496_                          0.0941220840830893 	(obj:0)
_var3500_                          0.0195577161122566 	(obj:0)
_var3502_                           0.326074845678158 	(obj:0)
_var3505_                           0.272299464918941 	(obj:0)
_var3506_                           0.233563487550644 	(obj:1)
_var3507_                             0.1630363501513 	(obj:0)
_var3509_                           0.203344245747155 	(obj:0)
_var3512_                           0.102584436613864 	(obj:0)
_var3514_                          0.0909299019719724 	(obj:0)
_var3518_                          0.0471536500659278 	(obj:0)
_var3520_                          0.0114502801694098 	(obj:1)
_var3521_                          0.0739101142335652 	(obj:0)
_var3522_                          0.0556755877620081 	(obj:0)
_var3526_                           0.178483576334983 	(obj:0)
_var3527_                           0.113860476949181 	(obj:0)
_var3533_                            0.13344465211177 	(obj:0)
_var3535_                           0.100658890831886 	(obj:0)
_var3537_                           0.137943097665683 	(obj:0)
_var3539_                           0.237332738889724 	(obj:0)
_var3542_                          0.0699087413797336 	(obj:0)
_var3543_                          0.0261590229126931 	(obj:1)
_var3544_                           0.481207387368883 	(obj:0)
_var3545_                          0.0770595223841314 	(obj:0)
_var3546_                            0.04253869948457 	(obj:0)
_var3549_                           0.269398286522896 	(obj:0)
_var3551_                          0.0849456298309169 	(obj:0)
_var3552_                          0.0871867613729548 	(obj:0)
_var3553_                          0.0311497009862426 	(obj:0)
_var3556_                           0.097720474007383 	(obj:0)
_var3557_                          0.0848313678835579 	(obj:1)
_var3558_                          0.0833823594050976 	(obj:0)
_var3559_                           0.301258738568207 	(obj:0)
_var3560_                          0.0777714054515806 	(obj:0)
_var3563_                           0.122449549388133 	(obj:0)
_var3564_                          0.0635418932305926 	(obj:0)
_var3567_                          0.0176323839796088 	(obj:0)
_var3568_                          0.0355238747963787 	(obj:0)
_var3569_                           0.126972386177711 	(obj:0)
_var3572_                           0.121671221536688 	(obj:0)
_var3576_                          0.0966198444789752 	(obj:0)
_var3579_                           0.101444363802231 	(obj:0)
_var3581_                          0.0812109360732058 	(obj:0)
_var3584_                           0.130772548308658 	(obj:0)
_var3587_                           0.101063031623441 	(obj:0)
_var3590_                           0.113491640163461 	(obj:0)
_var3591_                            0.29897481149449 	(obj:0)
_var3599_                          0.0552574920368012 	(obj:0)
_var3600_                         0.00403789245617447 	(obj:0)
_var3601_                          0.0330675449238922 	(obj:0)
_var3603_                          0.0396316191644837 	(obj:0)
_var3604_                          0.0203733900891868 	(obj:0)
_var3611_                         0.00535252644826679 	(obj:0)
_var3612_                           0.119157112287785 	(obj:0)
_var3616_                          0.0427011614828195 	(obj:0)
_var3617_                           0.114235880240016 	(obj:0)
_var3618_                          0.0114502801694098 	(obj:0)
_var3619_                          0.0926341159270557 	(obj:0)
_var3620_                          0.0109624392776338 	(obj:1)
_var3623_                          0.0431004199033534 	(obj:0)
_var3624_                          0.0537871991995429 	(obj:0)
_var3625_                           0.100393403223362 	(obj:0)
_var3626_                           0.184516910420373 	(obj:0)
_var3627_                          0.0638309920247336 	(obj:1)
_var3631_                            0.04253869948457 	(obj:0)
_var3632_                          0.0683047973233358 	(obj:0)
_var3634_                          0.0736640028906933 	(obj:0)
_var3637_                          0.0368203405059812 	(obj:0)
_var3638_                          0.0509517331208046 	(obj:0)
_var3639_                           0.151122977518289 	(obj:0)
_var3640_                          0.0207357122356614 	(obj:0)
_var3641_                         0.00111734223559085 	(obj:0)
_var3642_                          0.0510052882042016 	(obj:0)
_var3643_                           0.132777753093818 	(obj:0)
_var3646_                          0.0266408919328687 	(obj:0)
_var3647_                          0.0528176856482964 	(obj:0)
_var3650_                          0.0821727073342473 	(obj:0)
_var3651_                           0.019493946941179 	(obj:0)
_var3652_                          0.0261590229126924 	(obj:1)
_var3654_                          0.0675363414351414 	(obj:0)
_var3655_                          0.0314637743881773 	(obj:0)
_var3656_                          0.0198661675389784 	(obj:0)
_var3657_                           0.067453671990725 	(obj:0)
_var3658_                          0.0338764711030639 	(obj:0)
_var3662_                          0.0133875267021743 	(obj:0)
_var3663_                          0.0848329317903275 	(obj:0)
_var3664_                          0.0773846383002297 	(obj:0)
_var3665_                           0.058507014329819 	(obj:0)
_var3666_                          0.0297814670237812 	(obj:0)
_var3667_                          0.0399760367989523 	(obj:0)
