results_rootrelaxation/bin018_070_009.srr.log
SCIP version 8.0.3.5 [precision: 8 byte] [memory: block] [mode: optimized] [LP solver: Soplex 6.0.1.3] [GitHash: 438792519e]
Copyright (c) 2002-2023 Zuse Institute Berlin (ZIB)

External libraries: 
  Readline 8.1         GNU library for command line editing (gnu.org/s/readline)
  Soplex 6.0.1.3       Linear Programming Solver developed at Zuse Institute Berlin (soplex.zib.de) [GitHash: 713be0fe]
  CppAD 20180000.0     Algorithmic Differentiation of C++ algorithms developed by B. Bell (github.com/coin-or/CppAD)
  ZLIB 1.2.11          General purpose compression library by J. Gailly and M. Adler (zlib.net)
  bliss 0.77           Computing Graph Automorphism Groups by T. Junttila and P. Kaski (www.tcs.hut.fi/Software/bliss/)

user parameter file <scip.set> not found - using default parameters

srr/relaxation = TRUE

read problem <instances/bin018_070_009.srr>
============

Original problem: 
original problem has 0 variables (0 bin, 0 int, 0 impl, 0 cont) and 170 constraints

presolving:
presolving (1 rounds: 1 fast, 1 medium, 1 exhaustive):
 0 deleted vars, 0 deleted constraints, 0 added constraints, 0 tightened bounds, 0 added holes, 0 changed sides, 0 changed coefficients
 0 implications, 0 cliques
presolved problem has 0 variables (0 bin, 0 int, 0 impl, 0 cont) and 170 constraints
    170 constraints of type <linear>
Presolving Time: 0.00

 time | node  | left  |LP iter|LP it/n|mem/heur|mdpt |vars |cons |rows |cuts |sepa|confs|strbr|  dualbound   | primalbound  |  gap   | compl. 
  0.0s|     1 |     0 |     1 |     - |   922k |   0 |   1 | 170 | 170 |   0 |  0 |   0 |   0 |      --      |      --      |    Inf | unknown
  0.2s|     1 |     0 |  1178 |     - |  7231k |   0 |1615 | 170 | 170 |   0 |  0 |   0 |   0 |      --      |      --      |    Inf | unknown
r 0.9s|     1 |     0 |  7257 |     - |simplero|   0 |2737 | 170 | 170 |   0 |  0 |   0 |   0 |      --      | 6.460725e+01 |    Inf | unknown
r 1.0s|     1 |     0 |  7393 |     - |simplero|   0 |2754 | 170 | 170 |   0 |  0 |   0 |   0 |      --      | 6.135220e+01 |    Inf | unknown
r 1.0s|     1 |     0 |  7602 |     - |simplero|   0 |2771 | 170 | 170 |   0 |  0 |   0 |   0 |      --      | 5.802526e+01 |    Inf | unknown
r 1.0s|     1 |     0 |  7738 |     - |simplero|   0 |2788 | 170 | 170 |   0 |  0 |   0 |   0 |      --      | 5.516350e+01 |    Inf | unknown
r 1.0s|     1 |     0 |  7843 |     - |simplero|   0 |2805 | 170 | 170 |   0 |  0 |   0 |   0 |      --      | 5.248865e+01 |    Inf | unknown
r 1.0s|     1 |     0 |  7941 |     - |simplero|   0 |2805 | 170 | 170 |   0 |  0 |   0 |   0 |      --      | 5.103105e+01 |    Inf | unknown
r 1.1s|     1 |     0 |  7943 |     - |simplero|   0 |2805 | 170 | 170 |   0 |  0 |   0 |   0 |      --      | 5.103101e+01 |    Inf | unknown
r 1.1s|     1 |     0 |  8086 |     - |simplero|   0 |2822 | 170 | 170 |   0 |  0 |   0 |   0 |      --      | 4.782366e+01 |    Inf | unknown
r 1.1s|     1 |     0 |  8119 |     - |simplero|   0 |2822 | 170 | 170 |   0 |  0 |   0 |   0 |      --      | 4.774378e+01 |    Inf | unknown
r 1.1s|     1 |     0 |  8332 |     - |simplero|   0 |2839 | 170 | 170 |   0 |  0 |   0 |   0 |      --      | 4.334809e+01 |    Inf | unknown
r 1.1s|     1 |     0 |  8348 |     - |simplero|   0 |2839 | 170 | 170 |   0 |  0 |   0 |   0 |      --      | 4.333592e+01 |    Inf | unknown
r 1.1s|     1 |     0 |  8358 |     - |simplero|   0 |2839 | 170 | 170 |   0 |  0 |   0 |   0 |      --      | 4.333220e+01 |    Inf | unknown
r 1.1s|     1 |     0 |  8365 |     - |simplero|   0 |2839 | 170 | 170 |   0 |  0 |   0 |   0 |      --      | 4.333035e+01 |    Inf | unknown
 time | node  | left  |LP iter|LP it/n|mem/heur|mdpt |vars |cons |rows |cuts |sepa|confs|strbr|  dualbound   | primalbound  |  gap   | compl. 
r 1.1s|     1 |     0 |  8507 |     - |simplero|   0 |2856 | 170 | 170 |   0 |  0 |   0 |   0 |      --      | 4.038242e+01 |    Inf | unknown
r 1.1s|     1 |     0 |  8574 |     - |simplero|   0 |2856 | 170 | 170 |   0 |  0 |   0 |   0 |      --      | 3.969744e+01 |    Inf | unknown
r 1.1s|     1 |     0 |  8616 |     - |simplero|   0 |2856 | 170 | 170 |   0 |  0 |   0 |   0 |      --      | 3.960006e+01 |    Inf | unknown
r 1.1s|     1 |     0 |  8621 |     - |simplero|   0 |2856 | 170 | 170 |   0 |  0 |   0 |   0 |      --      | 3.959819e+01 |    Inf | unknown
r 1.2s|     1 |     0 |  8706 |     - |simplero|   0 |2873 | 170 | 170 |   0 |  0 |   0 |   0 |      --      | 3.836083e+01 |    Inf | unknown
r 1.2s|     1 |     0 |  8792 |     - |simplero|   0 |2873 | 170 | 170 |   0 |  0 |   0 |   0 |      --      | 3.781424e+01 |    Inf | unknown
r 1.2s|     1 |     0 |  8836 |     - |simplero|   0 |2873 | 170 | 170 |   0 |  0 |   0 |   0 |      --      | 3.764011e+01 |    Inf | unknown
r 1.2s|     1 |     0 |  8839 |     - |simplero|   0 |2873 | 170 | 170 |   0 |  0 |   0 |   0 |      --      | 3.763180e+01 |    Inf | unknown
r 1.2s|     1 |     0 |  8962 |     - |simplero|   0 |2890 | 170 | 170 |   0 |  0 |   0 |   0 |      --      | 3.553136e+01 |    Inf | unknown
r 1.2s|     1 |     0 |  9031 |     - |simplero|   0 |2890 | 170 | 170 |   0 |  0 |   0 |   0 |      --      | 3.496149e+01 |    Inf | unknown
r 1.2s|     1 |     0 |  9047 |     - |simplero|   0 |2890 | 170 | 170 |   0 |  0 |   0 |   0 |      --      | 3.495060e+01 |    Inf | unknown
r 1.2s|     1 |     0 |  9060 |     - |simplero|   0 |2890 | 170 | 170 |   0 |  0 |   0 |   0 |      --      | 3.494793e+01 |    Inf | unknown
r 1.2s|     1 |     0 |  9190 |     - |simplero|   0 |2907 | 170 | 170 |   0 |  0 |   0 |   0 |      --      | 3.254741e+01 |    Inf | unknown
r 1.2s|     1 |     0 |  9253 |     - |simplero|   0 |2907 | 170 | 170 |   0 |  0 |   0 |   0 |      --      | 3.225163e+01 |    Inf | unknown
r 1.2s|     1 |     0 |  9255 |     - |simplero|   0 |2907 | 170 | 170 |   0 |  0 |   0 |   0 |      --      | 3.225127e+01 |    Inf | unknown
 time | node  | left  |LP iter|LP it/n|mem/heur|mdpt |vars |cons |rows |cuts |sepa|confs|strbr|  dualbound   | primalbound  |  gap   | compl. 
r 1.3s|     1 |     0 |  9366 |     - |simplero|   0 |2924 | 170 | 170 |   0 |  0 |   0 |   0 |      --      | 3.091356e+01 |    Inf | unknown
r 1.3s|     1 |     0 |  9413 |     - |simplero|   0 |2924 | 170 | 170 |   0 |  0 |   0 |   0 |      --      | 3.038201e+01 |    Inf | unknown
r 1.3s|     1 |     0 |  9446 |     - |simplero|   0 |2924 | 170 | 170 |   0 |  0 |   0 |   0 |      --      | 3.030794e+01 |    Inf | unknown
r 1.3s|     1 |     0 |  9451 |     - |simplero|   0 |2924 | 170 | 170 |   0 |  0 |   0 |   0 |      --      | 3.030304e+01 |    Inf | unknown
  1.3s|     1 |     0 |  9579 |     - |    13M |   0 |2941 | 170 | 170 |   0 |  0 |   0 |   0 |      --      | 3.030304e+01 |    Inf | unknown
r 1.3s|     1 |     0 |  9579 |     - |simplero|   0 |2941 | 170 | 170 |   0 |  0 |   0 |   0 |      --      | 2.792027e+01 |    Inf | unknown
r 1.3s|     1 |     0 |  9663 |     - |simplero|   0 |2941 | 170 | 170 |   0 |  0 |   0 |   0 |      --      | 2.731108e+01 |    Inf | unknown
r 1.3s|     1 |     0 |  9679 |     - |simplero|   0 |2941 | 170 | 170 |   0 |  0 |   0 |   0 |      --      | 2.728691e+01 |    Inf | unknown
r 1.3s|     1 |     0 |  9893 |     - |simplero|   0 |2958 | 170 | 170 |   0 |  0 |   0 |   0 |      --      | 2.459107e+01 |    Inf | unknown
r 1.3s|     1 |     0 |  9946 |     - |simplero|   0 |2958 | 170 | 170 |   0 |  0 |   0 |   0 |      --      | 2.436961e+01 |    Inf | unknown
r 1.3s|     1 |     0 |  9967 |     - |simplero|   0 |2958 | 170 | 170 |   0 |  0 |   0 |   0 |      --      | 2.432841e+01 |    Inf | unknown
r 1.4s|     1 |     0 | 10166 |     - |simplero|   0 |2975 | 170 | 170 |   0 |  0 |   0 |   0 |      --      | 2.203776e+01 |    Inf | unknown
r 1.4s|     1 |     0 | 10224 |     - |simplero|   0 |2975 | 170 | 170 |   0 |  0 |   0 |   0 |      --      | 2.174083e+01 |    Inf | unknown
r 1.4s|     1 |     0 | 10239 |     - |simplero|   0 |2975 | 170 | 170 |   0 |  0 |   0 |   0 |      --      | 2.173579e+01 |    Inf | unknown
r 1.4s|     1 |     0 | 10337 |     - |simplero|   0 |2992 | 170 | 170 |   0 |  0 |   0 |   0 |      --      | 2.058906e+01 |    Inf | unknown
 time | node  | left  |LP iter|LP it/n|mem/heur|mdpt |vars |cons |rows |cuts |sepa|confs|strbr|  dualbound   | primalbound  |  gap   | compl. 
r 1.4s|     1 |     0 | 10401 |     - |simplero|   0 |2992 | 170 | 170 |   0 |  0 |   0 |   0 |      --      | 2.037916e+01 |    Inf | unknown
r 1.4s|     1 |     0 | 10418 |     - |simplero|   0 |2992 | 170 | 170 |   0 |  0 |   0 |   0 |      --      | 2.037354e+01 |    Inf | unknown
r 1.4s|     1 |     0 | 10424 |     - |simplero|   0 |2992 | 170 | 170 |   0 |  0 |   0 |   0 |      --      | 2.037147e+01 |    Inf | unknown
r 1.4s|     1 |     0 | 10599 |     - |simplero|   0 |3009 | 170 | 170 |   0 |  0 |   0 |   0 |      --      | 1.905566e+01 |    Inf | unknown
r 1.4s|     1 |     0 | 10623 |     - |simplero|   0 |3009 | 170 | 170 |   0 |  0 |   0 |   0 |      --      | 1.899117e+01 |    Inf | unknown
r 1.4s|     1 |     0 | 10635 |     - |simplero|   0 |3009 | 170 | 170 |   0 |  0 |   0 |   0 |      --      | 1.898255e+01 |    Inf | unknown
r 1.5s|     1 |     0 | 10759 |     - |simplero|   0 |3026 | 170 | 170 |   0 |  0 |   0 |   0 |      --      | 1.764764e+01 |    Inf | unknown
r 1.5s|     1 |     0 | 10780 |     - |simplero|   0 |3026 | 170 | 170 |   0 |  0 |   0 |   0 |      --      | 1.761103e+01 |    Inf | unknown
r 1.5s|     1 |     0 | 10785 |     - |simplero|   0 |3026 | 170 | 170 |   0 |  0 |   0 |   0 |      --      | 1.759925e+01 |    Inf | unknown
r 1.5s|     1 |     0 | 10958 |     - |simplero|   0 |3043 | 170 | 170 |   0 |  0 |   0 |   0 |      --      | 1.628089e+01 |    Inf | unknown
r 1.5s|     1 |     0 | 10977 |     - |simplero|   0 |3043 | 170 | 170 |   0 |  0 |   0 |   0 |      --      | 1.622937e+01 |    Inf | unknown
r 1.5s|     1 |     0 | 10986 |     - |simplero|   0 |3043 | 170 | 170 |   0 |  0 |   0 |   0 |      --      | 1.622095e+01 |    Inf | unknown
r 1.5s|     1 |     0 | 10988 |     - |simplero|   0 |3043 | 170 | 170 |   0 |  0 |   0 |   0 |      --      | 1.622092e+01 |    Inf | unknown
r 1.5s|     1 |     0 | 11091 |     - |simplero|   0 |3060 | 170 | 170 |   0 |  0 |   0 |   0 |      --      | 1.528225e+01 |    Inf | unknown
r 1.5s|     1 |     0 | 11131 |     - |simplero|   0 |3060 | 170 | 170 |   0 |  0 |   0 |   0 |      --      | 1.517885e+01 |    Inf | unknown
 time | node  | left  |LP iter|LP it/n|mem/heur|mdpt |vars |cons |rows |cuts |sepa|confs|strbr|  dualbound   | primalbound  |  gap   | compl. 
r 1.5s|     1 |     0 | 11142 |     - |simplero|   0 |3060 | 170 | 170 |   0 |  0 |   0 |   0 |      --      | 1.517476e+01 |    Inf | unknown
r 1.5s|     1 |     0 | 11241 |     - |simplero|   0 |3077 | 170 | 170 |   0 |  0 |   0 |   0 |      --      | 1.447587e+01 |    Inf | unknown
r 1.6s|     1 |     0 | 11287 |     - |simplero|   0 |3077 | 170 | 170 |   0 |  0 |   0 |   0 |      --      | 1.423121e+01 |    Inf | unknown
r 1.6s|     1 |     0 | 11309 |     - |simplero|   0 |3077 | 170 | 170 |   0 |  0 |   0 |   0 |      --      | 1.421698e+01 |    Inf | unknown
r 1.6s|     1 |     0 | 11310 |     - |simplero|   0 |3077 | 170 | 170 |   0 |  0 |   0 |   0 |      --      | 1.421697e+01 |    Inf | unknown
r 1.6s|     1 |     0 | 11449 |     - |simplero|   0 |3094 | 170 | 170 |   0 |  0 |   0 |   0 |      --      | 1.350740e+01 |    Inf | unknown
r 1.6s|     1 |     0 | 11494 |     - |simplero|   0 |3094 | 170 | 170 |   0 |  0 |   0 |   0 |      --      | 1.336617e+01 |    Inf | unknown
r 1.6s|     1 |     0 | 11497 |     - |simplero|   0 |3094 | 170 | 170 |   0 |  0 |   0 |   0 |      --      | 1.336538e+01 |    Inf | unknown
r 1.6s|     1 |     0 | 11583 |     - |simplero|   0 |3111 | 170 | 170 |   0 |  0 |   0 |   0 |      --      | 1.280309e+01 |    Inf | unknown
r 1.6s|     1 |     0 | 11601 |     - |simplero|   0 |3111 | 170 | 170 |   0 |  0 |   0 |   0 |      --      | 1.277076e+01 |    Inf | unknown
r 1.6s|     1 |     0 | 11604 |     - |simplero|   0 |3111 | 170 | 170 |   0 |  0 |   0 |   0 |      --      | 1.276994e+01 |    Inf | unknown
r 1.6s|     1 |     0 | 11709 |     - |simplero|   0 |3128 | 170 | 170 |   0 |  0 |   0 |   0 |      --      | 1.222663e+01 |    Inf | unknown
r 1.6s|     1 |     0 | 11731 |     - |simplero|   0 |3128 | 170 | 170 |   0 |  0 |   0 |   0 |      --      | 1.221032e+01 |    Inf | unknown
r 1.6s|     1 |     0 | 11733 |     - |simplero|   0 |3128 | 170 | 170 |   0 |  0 |   0 |   0 |      --      | 1.221025e+01 |    Inf | unknown
r 1.7s|     1 |     0 | 11864 |     - |simplero|   0 |3145 | 170 | 170 |   0 |  0 |   0 |   0 |      --      | 1.126200e+01 |    Inf | unknown
 time | node  | left  |LP iter|LP it/n|mem/heur|mdpt |vars |cons |rows |cuts |sepa|confs|strbr|  dualbound   | primalbound  |  gap   | compl. 
r 1.7s|     1 |     0 | 11959 |     - |simplero|   0 |3145 | 170 | 170 |   0 |  0 |   0 |   0 |      --      | 1.086446e+01 |    Inf | unknown
r 1.7s|     1 |     0 | 11966 |     - |simplero|   0 |3145 | 170 | 170 |   0 |  0 |   0 |   0 |      --      | 1.086283e+01 |    Inf | unknown
r 1.7s|     1 |     0 | 12067 |     - |simplero|   0 |3162 | 170 | 170 |   0 |  0 |   0 |   0 |      --      | 1.007993e+01 |    Inf | unknown
r 1.7s|     1 |     0 | 12081 |     - |simplero|   0 |3162 | 170 | 170 |   0 |  0 |   0 |   0 |      --      | 1.006635e+01 |    Inf | unknown
r 1.7s|     1 |     0 | 12084 |     - |simplero|   0 |3162 | 170 | 170 |   0 |  0 |   0 |   0 |      --      | 1.006554e+01 |    Inf | unknown
r 1.7s|     1 |     0 | 12227 |     - |simplero|   0 |3179 | 170 | 170 |   0 |  0 |   0 |   0 |      --      | 9.123860e+00 |    Inf | unknown
r 1.7s|     1 |     0 | 12274 |     - |simplero|   0 |3179 | 170 | 170 |   0 |  0 |   0 |   0 |      --      | 8.959231e+00 |    Inf | unknown
r 1.7s|     1 |     0 | 12282 |     - |simplero|   0 |3179 | 170 | 170 |   0 |  0 |   0 |   0 |      --      | 8.957244e+00 |    Inf | unknown
r 1.7s|     1 |     0 | 12336 |     - |simplero|   0 |3196 | 170 | 170 |   0 |  0 |   0 |   0 |      --      | 8.447906e+00 |    Inf | unknown
r 1.8s|     1 |     0 | 12363 |     - |simplero|   0 |3196 | 170 | 170 |   0 |  0 |   0 |   0 |      --      | 8.410425e+00 |    Inf | unknown
r 1.8s|     1 |     0 | 12366 |     - |simplero|   0 |3196 | 170 | 170 |   0 |  0 |   0 |   0 |      --      | 8.410326e+00 |    Inf | unknown
r 1.8s|     1 |     0 | 12369 |     - |simplero|   0 |3196 | 170 | 170 |   0 |  0 |   0 |   0 |      --      | 8.410001e+00 |    Inf | unknown
r 1.8s|     1 |     0 | 12463 |     - |simplero|   0 |3213 | 170 | 170 |   0 |  0 |   0 |   0 |      --      | 7.749160e+00 |    Inf | unknown
r 1.8s|     1 |     0 | 12500 |     - |simplero|   0 |3213 | 170 | 170 |   0 |  0 |   0 |   0 |      --      | 7.690870e+00 |    Inf | unknown
r 1.8s|     1 |     0 | 12518 |     - |simplero|   0 |3213 | 170 | 170 |   0 |  0 |   0 |   0 |      --      | 7.673777e+00 |    Inf | unknown
 time | node  | left  |LP iter|LP it/n|mem/heur|mdpt |vars |cons |rows |cuts |sepa|confs|strbr|  dualbound   | primalbound  |  gap   | compl. 
r 1.8s|     1 |     0 | 12670 |     - |simplero|   0 |3230 | 170 | 170 |   0 |  0 |   0 |   0 |      --      | 6.918850e+00 |    Inf | unknown
r 1.8s|     1 |     0 | 12682 |     - |simplero|   0 |3230 | 170 | 170 |   0 |  0 |   0 |   0 |      --      | 6.903601e+00 |    Inf | unknown
r 1.8s|     1 |     0 | 12771 |     - |simplero|   0 |3247 | 170 | 170 |   0 |  0 |   0 |   0 |      --      | 6.439209e+00 |    Inf | unknown
r 1.8s|     1 |     0 | 12810 |     - |simplero|   0 |3247 | 170 | 170 |   0 |  0 |   0 |   0 |      --      | 6.338889e+00 |    Inf | unknown
r 1.8s|     1 |     0 | 12814 |     - |simplero|   0 |3247 | 170 | 170 |   0 |  0 |   0 |   0 |      --      | 6.331915e+00 |    Inf | unknown
r 1.8s|     1 |     0 | 12895 |     - |simplero|   0 |3264 | 170 | 170 |   0 |  0 |   0 |   0 |      --      | 5.844682e+00 |    Inf | unknown
r 1.8s|     1 |     0 | 12922 |     - |simplero|   0 |3264 | 170 | 170 |   0 |  0 |   0 |   0 |      --      | 5.785261e+00 |    Inf | unknown
r 1.9s|     1 |     0 | 12934 |     - |simplero|   0 |3264 | 170 | 170 |   0 |  0 |   0 |   0 |      --      | 5.775881e+00 |    Inf | unknown
r 1.9s|     1 |     0 | 12938 |     - |simplero|   0 |3264 | 170 | 170 |   0 |  0 |   0 |   0 |      --      | 5.774577e+00 |    Inf | unknown
r 1.9s|     1 |     0 | 13025 |     - |simplero|   0 |3281 | 170 | 170 |   0 |  0 |   0 |   0 |      --      | 5.219137e+00 |    Inf | unknown
r 1.9s|     1 |     0 | 13059 |     - |simplero|   0 |3281 | 170 | 170 |   0 |  0 |   0 |   0 |      --      | 5.190377e+00 |    Inf | unknown
r 1.9s|     1 |     0 | 13070 |     - |simplero|   0 |3281 | 170 | 170 |   0 |  0 |   0 |   0 |      --      | 5.187484e+00 |    Inf | unknown
r 1.9s|     1 |     0 | 13154 |     - |simplero|   0 |3298 | 170 | 170 |   0 |  0 |   0 |   0 |      --      | 4.678481e+00 |    Inf | unknown
r 1.9s|     1 |     0 | 13183 |     - |simplero|   0 |3298 | 170 | 170 |   0 |  0 |   0 |   0 |      --      | 4.634531e+00 |    Inf | unknown
r 1.9s|     1 |     0 | 13189 |     - |simplero|   0 |3298 | 170 | 170 |   0 |  0 |   0 |   0 |      --      | 4.631473e+00 |    Inf | unknown
 time | node  | left  |LP iter|LP it/n|mem/heur|mdpt |vars |cons |rows |cuts |sepa|confs|strbr|  dualbound   | primalbound  |  gap   | compl. 
r 1.9s|     1 |     0 | 13193 |     - |simplero|   0 |3298 | 170 | 170 |   0 |  0 |   0 |   0 |      --      | 4.630080e+00 |    Inf | unknown
r 1.9s|     1 |     0 | 13282 |     - |simplero|   0 |3315 | 170 | 170 |   0 |  0 |   0 |   0 |      --      | 4.386158e+00 |    Inf | unknown
r 1.9s|     1 |     0 | 13333 |     - |simplero|   0 |3315 | 170 | 170 |   0 |  0 |   0 |   0 |      --      | 4.337525e+00 |    Inf | unknown
r 1.9s|     1 |     0 | 13349 |     - |simplero|   0 |3315 | 170 | 170 |   0 |  0 |   0 |   0 |      --      | 4.323247e+00 |    Inf | unknown
r 1.9s|     1 |     0 | 13354 |     - |simplero|   0 |3315 | 170 | 170 |   0 |  0 |   0 |   0 |      --      | 4.322717e+00 |    Inf | unknown
r 2.0s|     1 |     0 | 13449 |     - |simplero|   0 |3332 | 170 | 170 |   0 |  0 |   0 |   0 |      --      | 3.998131e+00 |    Inf | unknown
r 2.0s|     1 |     0 | 13484 |     - |simplero|   0 |3332 | 170 | 170 |   0 |  0 |   0 |   0 |      --      | 3.960541e+00 |    Inf | unknown
r 2.0s|     1 |     0 | 13503 |     - |simplero|   0 |3332 | 170 | 170 |   0 |  0 |   0 |   0 |      --      | 3.945135e+00 |    Inf | unknown
r 2.0s|     1 |     0 | 13505 |     - |simplero|   0 |3332 | 170 | 170 |   0 |  0 |   0 |   0 |      --      | 3.944846e+00 |    Inf | unknown
r 2.0s|     1 |     0 | 13577 |     - |simplero|   0 |3349 | 170 | 170 |   0 |  0 |   0 |   0 |      --      | 3.710613e+00 |    Inf | unknown
r 2.0s|     1 |     0 | 13591 |     - |simplero|   0 |3349 | 170 | 170 |   0 |  0 |   0 |   0 |      --      | 3.704529e+00 |    Inf | unknown
r 2.0s|     1 |     0 | 13601 |     - |simplero|   0 |3349 | 170 | 170 |   0 |  0 |   0 |   0 |      --      | 3.699443e+00 |    Inf | unknown
r 2.0s|     1 |     0 | 13602 |     - |simplero|   0 |3349 | 170 | 170 |   0 |  0 |   0 |   0 |      --      | 3.699325e+00 |    Inf | unknown
r 2.0s|     1 |     0 | 13689 |     - |simplero|   0 |3366 | 170 | 170 |   0 |  0 |   0 |   0 |      --      | 3.474107e+00 |    Inf | unknown
r 2.0s|     1 |     0 | 13729 |     - |simplero|   0 |3366 | 170 | 170 |   0 |  0 |   0 |   0 |      --      | 3.444501e+00 |    Inf | unknown
 time | node  | left  |LP iter|LP it/n|mem/heur|mdpt |vars |cons |rows |cuts |sepa|confs|strbr|  dualbound   | primalbound  |  gap   | compl. 
r 2.0s|     1 |     0 | 13744 |     - |simplero|   0 |3366 | 170 | 170 |   0 |  0 |   0 |   0 |      --      | 3.443126e+00 |    Inf | unknown
r 2.0s|     1 |     0 | 13827 |     - |simplero|   0 |3383 | 170 | 170 |   0 |  0 |   0 |   0 |      --      | 3.287324e+00 |    Inf | unknown
r 2.0s|     1 |     0 | 13854 |     - |simplero|   0 |3383 | 170 | 170 |   0 |  0 |   0 |   0 |      --      | 3.262222e+00 |    Inf | unknown
r 2.0s|     1 |     0 | 13879 |     - |simplero|   0 |3383 | 170 | 170 |   0 |  0 |   0 |   0 |      --      | 3.257491e+00 |    Inf | unknown
r 2.1s|     1 |     0 | 13973 |     - |simplero|   0 |3400 | 170 | 170 |   0 |  0 |   0 |   0 |      --      | 2.920908e+00 |    Inf | unknown
r 2.1s|     1 |     0 | 14018 |     - |simplero|   0 |3400 | 170 | 170 |   0 |  0 |   0 |   0 |      --      | 2.848852e+00 |    Inf | unknown
r 2.1s|     1 |     0 | 14139 |     - |simplero|   0 |3417 | 170 | 170 |   0 |  0 |   0 |   0 |      --      | 2.558994e+00 |    Inf | unknown
r 2.1s|     1 |     0 | 14141 |     - |simplero|   0 |3417 | 170 | 170 |   0 |  0 |   0 |   0 |      --      | 2.557613e+00 |    Inf | unknown
r 2.1s|     1 |     0 | 14144 |     - |simplero|   0 |3417 | 170 | 170 |   0 |  0 |   0 |   0 |      --      | 2.557020e+00 |    Inf | unknown
r 2.1s|     1 |     0 | 14246 |     - |simplero|   0 |3434 | 170 | 170 |   0 |  0 |   0 |   0 |      --      | 2.319750e+00 |    Inf | unknown
r 2.1s|     1 |     0 | 14289 |     - |simplero|   0 |3434 | 170 | 170 |   0 |  0 |   0 |   0 |      --      | 2.288370e+00 |    Inf | unknown
r 2.1s|     1 |     0 | 14294 |     - |simplero|   0 |3434 | 170 | 170 |   0 |  0 |   0 |   0 |      --      | 2.287438e+00 |    Inf | unknown
r 2.1s|     1 |     0 | 14430 |     - |simplero|   0 |3451 | 170 | 170 |   0 |  0 |   0 |   0 |      --      | 2.129467e+00 |    Inf | unknown
r 2.1s|     1 |     0 | 14518 |     - |simplero|   0 |3468 | 170 | 170 |   0 |  0 |   0 |   0 |      --      | 1.974932e+00 |    Inf | unknown
r 2.1s|     1 |     0 | 14538 |     - |simplero|   0 |3468 | 170 | 170 |   0 |  0 |   0 |   0 |      --      | 1.962492e+00 |    Inf | unknown
 time | node  | left  |LP iter|LP it/n|mem/heur|mdpt |vars |cons |rows |cuts |sepa|confs|strbr|  dualbound   | primalbound  |  gap   | compl. 
  2.1s|     1 |     0 | 14550 |     - |    20M |   0 |3468 | 170 | 170 |   0 |  0 |   0 |   0 |      --      | 1.962492e+00 |    Inf | unknown
r 2.1s|     1 |     0 | 14550 |     - |simplero|   0 |3468 | 170 | 170 |   0 |  0 |   0 |   0 |      --      | 1.950253e+00 |    Inf | unknown
r 2.2s|     1 |     0 | 14641 |     - |simplero|   0 |3485 | 170 | 170 |   0 |  0 |   0 |   0 |      --      | 1.828671e+00 |    Inf | unknown
r 2.2s|     1 |     0 | 14681 |     - |simplero|   0 |3485 | 170 | 170 |   0 |  0 |   0 |   0 |      --      | 1.817130e+00 |    Inf | unknown
r 2.2s|     1 |     0 | 14689 |     - |simplero|   0 |3485 | 170 | 170 |   0 |  0 |   0 |   0 |      --      | 1.816761e+00 |    Inf | unknown
r 2.2s|     1 |     0 | 14690 |     - |simplero|   0 |3485 | 170 | 170 |   0 |  0 |   0 |   0 |      --      | 1.816756e+00 |    Inf | unknown
r 2.2s|     1 |     0 | 14760 |     - |simplero|   0 |3502 | 170 | 170 |   0 |  0 |   0 |   0 |      --      | 1.713349e+00 |    Inf | unknown
r 2.2s|     1 |     0 | 14803 |     - |simplero|   0 |3502 | 170 | 170 |   0 |  0 |   0 |   0 |      --      | 1.699128e+00 |    Inf | unknown
r 2.2s|     1 |     0 | 14813 |     - |simplero|   0 |3502 | 170 | 170 |   0 |  0 |   0 |   0 |      --      | 1.698278e+00 |    Inf | unknown
r 2.2s|     1 |     0 | 14925 |     - |simplero|   0 |3519 | 170 | 170 |   0 |  0 |   0 |   0 |      --      | 1.606277e+00 |    Inf | unknown
r 2.2s|     1 |     0 | 14946 |     - |simplero|   0 |3519 | 170 | 170 |   0 |  0 |   0 |   0 |      --      | 1.600193e+00 |    Inf | unknown
r 2.2s|     1 |     0 | 14947 |     - |simplero|   0 |3519 | 170 | 170 |   0 |  0 |   0 |   0 |      --      | 1.600192e+00 |    Inf | unknown
r 2.2s|     1 |     0 | 15041 |     - |simplero|   0 |3536 | 170 | 170 |   0 |  0 |   0 |   0 |      --      | 1.522924e+00 |    Inf | unknown
r 2.2s|     1 |     0 | 15054 |     - |simplero|   0 |3536 | 170 | 170 |   0 |  0 |   0 |   0 |      --      | 1.520864e+00 |    Inf | unknown
r 2.2s|     1 |     0 | 15058 |     - |simplero|   0 |3536 | 170 | 170 |   0 |  0 |   0 |   0 |      --      | 1.520788e+00 |    Inf | unknown
 time | node  | left  |LP iter|LP it/n|mem/heur|mdpt |vars |cons |rows |cuts |sepa|confs|strbr|  dualbound   | primalbound  |  gap   | compl. 
r 2.2s|     1 |     0 | 15128 |     - |simplero|   0 |3553 | 170 | 170 |   0 |  0 |   0 |   0 |      --      | 1.402815e+00 |    Inf | unknown
r 2.2s|     1 |     0 | 15161 |     - |simplero|   0 |3553 | 170 | 170 |   0 |  0 |   0 |   0 |      --      | 1.380969e+00 |    Inf | unknown
r 2.3s|     1 |     0 | 15169 |     - |simplero|   0 |3553 | 170 | 170 |   0 |  0 |   0 |   0 |      --      | 1.380764e+00 |    Inf | unknown
r 2.3s|     1 |     0 | 15299 |     - |simplero|   0 |3570 | 170 | 170 |   0 |  0 |   0 |   0 |      --      | 1.292095e+00 |    Inf | unknown
r 2.3s|     1 |     0 | 15347 |     - |simplero|   0 |3570 | 170 | 170 |   0 |  0 |   0 |   0 |      --      | 1.274391e+00 |    Inf | unknown
r 2.3s|     1 |     0 | 15350 |     - |simplero|   0 |3570 | 170 | 170 |   0 |  0 |   0 |   0 |      --      | 1.274294e+00 |    Inf | unknown
r 2.3s|     1 |     0 | 15426 |     - |simplero|   0 |3587 | 170 | 170 |   0 |  0 |   0 |   0 |      --      | 1.230946e+00 |    Inf | unknown
r 2.3s|     1 |     0 | 15443 |     - |simplero|   0 |3587 | 170 | 170 |   0 |  0 |   0 |   0 |      --      | 1.230409e+00 |    Inf | unknown
r 2.3s|     1 |     0 | 15444 |     - |simplero|   0 |3587 | 170 | 170 |   0 |  0 |   0 |   0 |      --      | 1.230404e+00 |    Inf | unknown
r 2.3s|     1 |     0 | 15516 |     - |simplero|   0 |3601 | 170 | 170 |   0 |  0 |   0 |   0 |      --      | 1.209554e+00 |    Inf | unknown
r 2.3s|     1 |     0 | 15570 |     - |simplero|   0 |3601 | 170 | 170 |   0 |  0 |   0 |   0 |      --      | 1.198268e+00 |    Inf | unknown
r 2.3s|     1 |     0 | 15578 |     - |simplero|   0 |3601 | 170 | 170 |   0 |  0 |   0 |   0 |      --      | 1.198230e+00 |    Inf | unknown
r 2.3s|     1 |     0 | 15638 |     - |simplero|   0 |3615 | 170 | 170 |   0 |  0 |   0 |   0 |      --      | 1.184638e+00 |    Inf | unknown
r 2.3s|     1 |     0 | 15717 |     - |simplero|   0 |3627 | 170 | 170 |   0 |  0 |   0 |   0 |      --      | 1.168452e+00 |    Inf | unknown
r 2.3s|     1 |     0 | 15726 |     - |simplero|   0 |3627 | 170 | 170 |   0 |  0 |   0 |   0 |      --      | 1.168403e+00 |    Inf | unknown
 time | node  | left  |LP iter|LP it/n|mem/heur|mdpt |vars |cons |rows |cuts |sepa|confs|strbr|  dualbound   | primalbound  |  gap   | compl. 
r 2.3s|     1 |     0 | 15781 |     - |simplero|   0 |3638 | 170 | 170 |   0 |  0 |   0 |   0 |      --      | 1.161282e+00 |    Inf | unknown
r 2.3s|     1 |     0 | 15789 |     - |simplero|   0 |3638 | 170 | 170 |   0 |  0 |   0 |   0 |      --      | 1.160395e+00 |    Inf | unknown
r 2.3s|     1 |     0 | 15829 |     - |simplero|   0 |3648 | 170 | 170 |   0 |  0 |   0 |   0 |      --      | 1.154746e+00 |    Inf | unknown
r 2.3s|     1 |     0 | 15830 |     - |simplero|   0 |3648 | 170 | 170 |   0 |  0 |   0 |   0 |      --      | 1.154712e+00 |    Inf | unknown
r 2.4s|     1 |     0 | 15851 |     - |simplero|   0 |3655 | 170 | 170 |   0 |  0 |   0 |   0 |      --      | 1.152548e+00 |    Inf | unknown
r 2.4s|     1 |     0 | 15861 |     - |simplero|   0 |3660 | 170 | 170 |   0 |  0 |   0 |   0 |      --      | 1.151594e+00 |    Inf | unknown
r 2.4s|     1 |     0 | 15865 |     - |simplero|   0 |3660 | 170 | 170 |   0 |  0 |   0 |   0 |      --      | 1.151575e+00 |    Inf | unknown
r 2.4s|     1 |     0 | 15872 |     - |simplero|   0 |3664 | 170 | 170 |   0 |  0 |   0 |   0 |      --      | 1.150579e+00 |    Inf | unknown
r 2.4s|     1 |     0 | 15875 |     - |simplero|   0 |3664 | 170 | 170 |   0 |  0 |   0 |   0 |      --      | 1.150559e+00 |    Inf | unknown
r 2.4s|     1 |     0 | 15876 |     - |simplero|   0 |3664 | 170 | 170 |   0 |  0 |   0 |   0 |      --      | 1.150558e+00 |    Inf | unknown
r 2.4s|     1 |     0 | 15891 |     - |simplero|   0 |3667 | 170 | 170 |   0 |  0 |   0 |   0 |      --      | 1.148824e+00 |    Inf | unknown
r 2.4s|     1 |     0 | 15894 |     - |simplero|   0 |3668 | 170 | 170 |   0 |  0 |   0 |   0 |      --      | 1.148579e+00 |    Inf | unknown
  2.4s|     1 |     0 | 15895 |     - |    23M |   0 |3669 | 170 | 170 |   0 |  0 |   0 |   0 | 1.148579e+00 | 1.148579e+00 |   0.00%| unknown
  2.4s|     1 |     0 | 15895 |     - |    23M |   0 |3669 | 170 | 170 |   0 |  0 |   0 |   0 | 1.148579e+00 | 1.148579e+00 |   0.00%| unknown

SCIP Status        : problem is solved [optimal solution found]
Solving Time (sec) : 2.39
Solving Nodes      : 1
Primal Bound       : +1.14857889233214e+00 (173 solutions)
Dual Bound         : +1.14857889233214e+00
Gap                : 0.00 %

written transformed problem to file <results_rootrelaxation/bin018_070_009.srr.lp>
written transformed problem to file <results_rootrelaxation/bin018_070_009.srr.cip>

written solution information to file <results_rootrelaxation/bin018_070_009.srr.sol>



